p tw 63 105
5 11
5 12
2 9
2 5
2 7
2 10
4 5
4 13
4 14
10 14
42 43
42 50
37 39
25 28
25 34
25 40
25 33
52 59
14 15
57 58
29 35
61 62
1 13
1 61
1 3
6 17
6 13
6 16
6 20
6 8
6 12
6 19
21 30
21 62
21 63
21 24
21 38
33 37
28 39
28 32
38 61
38 40
53 59
53 62
13 17
13 63
13 16
41 57
41 46
41 56
41 48
41 52
41 54
45 47
45 54
45 52
17 20
17 62
32 35
22 34
22 26
22 27
22 36
44 59
59 63
27 31
27 34
12 18
12 19
49 51
49 59
49 50
3 17
3 8
35 37
48 51
48 60
50 61
50 59
50 58
11 12
11 16
43 44
43 54
43 48
43 51
26 38
26 35
55 58
23 26
23 37
23 29
23 24
23 31
8 19
8 15
58 59
36 39
36 37
30 38
51 57
51 60
51 53
47 50
15 20
